893,194
966,314
909,480
921,528
857,648
776,593
542,833
450,860
542,833
681,556
874,140
893,194
977,452
858,434
672,434
624,388
672,434
751,503
795,369
874,140
792,64
734,433
795,369
966,314
1028,229
998,-30
417,42
609,458
613,539
734,433
826,511
909,480
1006,457
857,648
850,575
804,575
776,593
826,511
1081,202
858,434
681,556
609,458
207,481
254,545
450,860
441,528
254,545
300,25
